NAME : 10_3_3_1_(16).dat
COMMENT : Henke, Speranza, Wäscher, 2015
TYPE : MCVRP
DIMENSION : 11
EDGE_WEIGHT_TYPE : DISTANCE_MATRIX
CAPACITY : 1000
VEHICLES : 3
PRODUCT TYPES : 3
COMPARTMENTS : 3
NODE_COORD_SECTION
1 50 50
2 46.68 28.16
3 49.06 12.61
4 78.7 5.93
5 90.6 4.88
6 63.53 21.51
7 0.69 69.12
8 24.59 54.42
9 82.99 54.65
10 1.29 15.85
11 11.59 78.23
DEMAND_SECTION
1 0 0 0
2 32 0 0
3 394 0 0
4 0 81 0
5 25 0 0
6 0 0 307
7 0 88 0
8 0 70 0
9 165 0 0
10 153 0 0
11 0 223 0
DEPOT_SECTION
1
EOF